(set-logic QF_LIA)
(declare-fun x0 () Int)
(declare-fun x1 () Int)
(declare-fun x2 () Int)
(declare-fun x3 () Int)
(declare-fun x4 () Int)
(declare-fun x5 () Int)
(declare-fun x6 () Int)
(declare-fun x7 () Int)
(declare-fun x8 () Int)
(declare-fun x9 () Int)
(declare-fun A0 () Bool)
(declare-fun A1 () Bool)
(declare-fun A2 () Bool)
(declare-fun A3 () Bool)
(declare-fun A4 () Bool)
(declare-fun A5 () Bool)
(declare-fun A6 () Bool)
(declare-fun A7 () Bool)
(declare-fun A8 () Bool)
(declare-fun A9 () Bool)
(assert (let ((.def_0 (* (- 1) x9))) (let ((.def_1 (* 1 x8))) (let ((.def_2 (+ .def_1 .def_0))) (let ((.def_3 (< .def_2 (- 1)))) (let ((.def_4 (* 1 x3))) (let ((.def_5 (+ .def_0 .def_4))) (let ((.def_6 (< .def_5 1))) (let ((.def_7 (not .def_6))) (let ((.def_8 (or .def_7 .def_3))) (let ((.def_9 (not .def_8))) (let ((.def_10 (* 1 x5))) (let ((.def_11 (< .def_10 1))) (let ((.def_12 (* 1 x9))) (let ((.def_13 (+ .def_4 .def_12))) (let ((.def_14 (< .def_13 1))) (let ((.def_15 (not .def_14))) (let ((.def_16 (and .def_15 .def_11))) (let ((.def_17 (not .def_16))) (let ((.def_18 (and .def_17 .def_9))) (let ((.def_19 (not .def_18))) (let ((.def_20 (* 1 x1))) (let ((.def_21 (< .def_20 1))) (let ((.def_22 (and A4 .def_21))) (let ((.def_23 (not .def_22))) (let ((.def_24 (not A7))) (let ((.def_25 (or .def_24 A7))) (let ((.def_26 (not .def_25))) (let ((.def_27 (or .def_26 .def_23))) (let ((.def_28 (not .def_27))) (let ((.def_29 (and .def_28 .def_19))) (let ((.def_30 (not .def_29))) (let ((.def_31 (* 1 x7))) (let ((.def_32 (< .def_31 1))) (let ((.def_33 (or .def_32 A0))) (let ((.def_34 (* 1 x4))) (let ((.def_35 (+ .def_34 .def_12))) (let ((.def_36 (< .def_35 (- 1)))) (let ((.def_37 (and .def_36 A0))) (let ((.def_38 (not .def_37))) (let ((.def_39 (or .def_38 .def_33))) (let ((.def_40 (not .def_39))) (let ((.def_41 (not A9))) (let ((.def_42 (and .def_41 A8))) (let ((.def_43 (not .def_42))) (let ((.def_44 (* (- 1) x6))) (let ((.def_45 (< .def_44 1))) (let ((.def_46 (not .def_45))) (let ((.def_47 (* (- 1) x3))) (let ((.def_48 (+ .def_34 .def_47))) (let ((.def_49 (< .def_48 1))) (let ((.def_50 (not .def_49))) (let ((.def_51 (and .def_50 .def_46))) (let ((.def_52 (not .def_51))) (let ((.def_53 (= .def_52 .def_43))) (let ((.def_54 (not .def_53))) (let ((.def_55 (and .def_54 .def_40))) (let ((.def_56 (not .def_55))) (let ((.def_57 (or .def_56 .def_30))) (let ((.def_58 (not .def_57))) (let ((.def_59 (* (- 1) x8))) (let ((.def_60 (* (- 1) x7))) (let ((.def_61 (+ .def_60 .def_59))) (let ((.def_62 (< .def_61 1))) (let ((.def_63 (not .def_62))) (let ((.def_64 (or .def_32 .def_63))) (let ((.def_65 (not .def_64))) (let ((.def_66 (not A8))) (let ((.def_67 (* (- 1) x5))) (let ((.def_68 (< .def_67 (- 1)))) (let ((.def_69 (not .def_68))) (let ((.def_70 (= .def_69 .def_66))) (let ((.def_71 (and .def_70 .def_65))) (let ((.def_72 (not A4))) (let ((.def_73 (or .def_72 A2))) (let ((.def_74 (not .def_73))) (let ((.def_75 (* (- 1) x0))) (let ((.def_76 (< .def_75 1))) (let ((.def_77 (+ .def_75 .def_20))) (let ((.def_78 (< .def_77 (- 1)))) (let ((.def_79 (or .def_78 .def_76))) (let ((.def_80 (not .def_79))) (let ((.def_81 (and .def_80 .def_74))) (let ((.def_82 (or .def_81 .def_71))) (let ((.def_83 (< .def_47 (- 1)))) (let ((.def_84 (and A1 .def_83))) (let ((.def_85 (not .def_84))) (let ((.def_86 (< .def_12 (- 1)))) (let ((.def_87 (not .def_86))) (let ((.def_88 (or .def_11 .def_87))) (let ((.def_89 (not .def_88))) (let ((.def_90 (and .def_89 .def_85))) (let ((.def_91 (* 1 x0))) (let ((.def_92 (< .def_91 1))) (let ((.def_93 (and A1 .def_92))) (let ((.def_94 (+ .def_59 .def_10))) (let ((.def_95 (< .def_94 1))) (let ((.def_96 (not .def_95))) (let ((.def_97 (= .def_96 .def_86))) (let ((.def_98 (and .def_97 .def_93))) (let ((.def_99 (not .def_98))) (let ((.def_100 (= .def_99 .def_90))) (let ((.def_101 (not .def_100))) (let ((.def_102 (= .def_101 .def_82))) (let ((.def_103 (not .def_102))) (let ((.def_104 (= .def_103 .def_58))) (let ((.def_105 (not .def_104))) (let ((.def_106 (+ .def_20 .def_47))) (let ((.def_107 (< .def_106 (- 1)))) (let ((.def_108 (< .def_1 1))) (let ((.def_109 (not .def_108))) (let ((.def_110 (or .def_109 .def_107))) (let ((.def_111 (not .def_110))) (let ((.def_112 (and .def_83 .def_72))) (let ((.def_113 (and .def_112 .def_111))) (let ((.def_114 (not .def_113))) (let ((.def_115 (+ .def_4 .def_34))) (let ((.def_116 (< .def_115 (- 1)))) (let ((.def_117 (not .def_116))) (let ((.def_118 (and .def_117 .def_92))) (let ((.def_119 (not .def_118))) (let ((.def_120 (< .def_94 (- 1)))) (let ((.def_121 (not .def_120))) (let ((.def_122 (and .def_121 .def_24))) (let ((.def_123 (or .def_122 .def_119))) (let ((.def_124 (or .def_123 .def_114))) (let ((.def_125 (or .def_66 A0))) (let ((.def_126 (not A0))) (let ((.def_127 (< .def_59 1))) (let ((.def_128 (or .def_127 .def_126))) (let ((.def_129 (not .def_128))) (let ((.def_130 (or .def_129 .def_125))) (let ((.def_131 (not .def_130))) (let ((.def_132 (not A6))) (let ((.def_133 (not A1))) (let ((.def_134 (and .def_133 .def_132))) (let ((.def_135 (not .def_134))) (let ((.def_136 (+ .def_1 .def_60))) (let ((.def_137 (< .def_136 1))) (let ((.def_138 (* 1 x6))) (let ((.def_139 (+ .def_138 .def_60))) (let ((.def_140 (< .def_139 (- 1)))) (let ((.def_141 (not .def_140))) (let ((.def_142 (and .def_141 .def_137))) (let ((.def_143 (or .def_142 .def_135))) (let ((.def_144 (or .def_143 .def_131))) (let ((.def_145 (not .def_144))) (let ((.def_146 (and .def_145 .def_124))) (let ((.def_147 (+ .def_138 .def_75))) (let ((.def_148 (< .def_147 1))) (let ((.def_149 (not .def_148))) (let ((.def_150 (< .def_4 (- 1)))) (let ((.def_151 (and .def_150 .def_149))) (let ((.def_152 (not .def_151))) (let ((.def_153 (+ .def_12 .def_91))) (let ((.def_154 (< .def_153 1))) (let ((.def_155 (or .def_154 .def_72))) (let ((.def_156 (or .def_155 .def_152))) (let ((.def_157 (not .def_156))) (let ((.def_158 (not .def_32))) (let ((.def_159 (and .def_158 .def_126))) (let ((.def_160 (+ .def_47 .def_10))) (let ((.def_161 (< .def_160 1))) (let ((.def_162 (and .def_41 .def_161))) (let ((.def_163 (not .def_162))) (let ((.def_164 (and .def_163 .def_159))) (let ((.def_165 (or .def_164 .def_157))) (let ((.def_166 (* 1 x2))) (let ((.def_167 (+ .def_166 .def_59))) (let ((.def_168 (< .def_167 1))) (let ((.def_169 (+ .def_91 .def_166))) (let ((.def_170 (< .def_169 1))) (let ((.def_171 (not .def_170))) (let ((.def_172 (= .def_171 .def_168))) (let ((.def_173 (not .def_172))) (let ((.def_174 (not A2))) (let ((.def_175 (+ .def_67 .def_47))) (let ((.def_176 (< .def_175 1))) (let ((.def_177 (not .def_176))) (let ((.def_178 (and .def_177 .def_174))) (let ((.def_179 (not .def_178))) (let ((.def_180 (or .def_179 .def_173))) (let ((.def_181 (and .def_72 .def_41))) (let ((.def_182 (not .def_181))) (let ((.def_183 (and .def_24 A5))) (let ((.def_184 (and .def_183 .def_182))) (let ((.def_185 (and .def_184 .def_180))) (let ((.def_186 (or .def_185 .def_165))) (let ((.def_187 (not .def_186))) (let ((.def_188 (and .def_187 .def_146))) (let ((.def_189 (not .def_188))) (let ((.def_190 (or .def_189 .def_105))) (let ((.def_191 (or A2 A7))) (let ((.def_192 (not .def_191))) (let ((.def_193 (* (- 1) x2))) (let ((.def_194 (< .def_193 1))) (let ((.def_195 (not .def_194))) (let ((.def_196 (+ .def_34 .def_91))) (let ((.def_197 (< .def_196 (- 1)))) (let ((.def_198 (not .def_197))) (let ((.def_199 (and .def_198 .def_195))) (let ((.def_200 (not .def_199))) (let ((.def_201 (and .def_200 .def_192))) (let ((.def_202 (< .def_59 (- 1)))) (let ((.def_203 (not A5))) (let ((.def_204 (or .def_203 .def_202))) (let ((.def_205 (not .def_204))) (let ((.def_206 (or A2 A1))) (let ((.def_207 (not .def_206))) (let ((.def_208 (or .def_207 .def_205))) (let ((.def_209 (or .def_208 .def_201))) (let ((.def_210 (not .def_209))) (let ((.def_211 (+ .def_67 .def_31))) (let ((.def_212 (< .def_211 (- 1)))) (let ((.def_213 (not .def_212))) (let ((.def_214 (or .def_213 A4))) (let ((.def_215 (not .def_214))) (let ((.def_216 (+ .def_20 .def_44))) (let ((.def_217 (< .def_216 (- 1)))) (let ((.def_218 (not .def_217))) (let ((.def_219 (or A8 .def_218))) (let ((.def_220 (not .def_219))) (let ((.def_221 (or .def_220 .def_215))) (let ((.def_222 (+ .def_34 .def_10))) (let ((.def_223 (< .def_222 1))) (let ((.def_224 (not .def_223))) (let ((.def_225 (or .def_224 .def_126))) (let ((.def_226 (not .def_225))) (let ((.def_227 (< .def_138 1))) (let ((.def_228 (not .def_227))) (let ((.def_229 (or A9 .def_228))) (let ((.def_230 (and .def_229 .def_226))) (let ((.def_231 (and .def_230 .def_221))) (let ((.def_232 (and .def_231 .def_210))) (let ((.def_233 (+ .def_10 .def_44))) (let ((.def_234 (< .def_233 1))) (let ((.def_235 (not .def_234))) (let ((.def_236 (= .def_235 .def_132))) (let ((.def_237 (not .def_236))) (let ((.def_238 (or .def_108 .def_132))) (let ((.def_239 (not .def_238))) (let ((.def_240 (and .def_239 .def_237))) (let ((.def_241 (not .def_240))) (let ((.def_242 (not .def_11))) (let ((.def_243 (* (- 1) x1))) (let ((.def_244 (+ .def_243 .def_91))) (let ((.def_245 (< .def_244 (- 1)))) (let ((.def_246 (not .def_245))) (let ((.def_247 (or .def_246 .def_242))) (let ((.def_248 (not .def_247))) (let ((.def_249 (+ .def_12 .def_20))) (let ((.def_250 (< .def_249 1))) (let ((.def_251 (and .def_250 A5))) (let ((.def_252 (not .def_251))) (let ((.def_253 (or .def_252 .def_248))) (let ((.def_254 (not .def_253))) (let ((.def_255 (and .def_254 .def_241))) (let ((.def_256 (not A3))) (let ((.def_257 (or .def_256 .def_203))) (let ((.def_258 (+ .def_20 .def_138))) (let ((.def_259 (< .def_258 1))) (let ((.def_260 (and A1 .def_259))) (let ((.def_261 (not .def_260))) (let ((.def_262 (and .def_261 .def_257))) (let ((.def_263 (and A4 .def_133))) (let ((.def_264 (not .def_263))) (let ((.def_265 (or .def_264 .def_192))) (let ((.def_266 (not .def_265))) (let ((.def_267 (or .def_266 .def_262))) (let ((.def_268 (= .def_267 .def_255))) (let ((.def_269 (not .def_268))) (let ((.def_270 (and .def_269 .def_232))) (let ((.def_271 (and A5 A5))) (let ((.def_272 (not .def_271))) (let ((.def_273 (+ .def_20 .def_0))) (let ((.def_274 (< .def_273 1))) (let ((.def_275 (not .def_274))) (let ((.def_276 (and .def_275 A8))) (let ((.def_277 (not .def_276))) (let ((.def_278 (and .def_277 .def_272))) (let ((.def_279 (or .def_41 A7))) (let ((.def_280 (< .def_47 1))) (let ((.def_281 (not .def_280))) (let ((.def_282 (not .def_83))) (let ((.def_283 (or .def_282 .def_281))) (let ((.def_284 (or .def_283 .def_279))) (let ((.def_285 (or .def_284 .def_278))) (let ((.def_286 (+ .def_12 .def_60))) (let ((.def_287 (< .def_286 1))) (let ((.def_288 (not .def_287))) (let ((.def_289 (= A8 .def_288))) (let ((.def_290 (and A3 .def_72))) (let ((.def_291 (and .def_290 .def_289))) (let ((.def_292 (not .def_291))) (let ((.def_293 (and .def_203 .def_282))) (let ((.def_294 (< .def_44 (- 1)))) (let ((.def_295 (and A2 .def_294))) (let ((.def_296 (not .def_295))) (let ((.def_297 (or .def_296 .def_293))) (let ((.def_298 (and .def_297 .def_292))) (let ((.def_299 (and .def_298 .def_285))) (let ((.def_300 (and A2 .def_195))) (let ((.def_301 (not .def_300))) (let ((.def_302 (+ .def_20 .def_34))) (let ((.def_303 (< .def_302 1))) (let ((.def_304 (not .def_303))) (let ((.def_305 (and .def_304 A9))) (let ((.def_306 (and .def_305 .def_301))) (let ((.def_307 (not .def_306))) (let ((.def_308 (+ .def_60 .def_75))) (let ((.def_309 (< .def_308 (- 1)))) (let ((.def_310 (not .def_309))) (let ((.def_311 (= .def_126 .def_310))) (let ((.def_312 (* (- 1) x4))) (let ((.def_313 (< .def_312 1))) (let ((.def_314 (not .def_313))) (let ((.def_315 (or .def_126 .def_314))) (let ((.def_316 (or .def_315 .def_311))) (let ((.def_317 (not .def_316))) (let ((.def_318 (and .def_317 .def_307))) (let ((.def_319 (< .def_0 (- 1)))) (let ((.def_320 (= A0 .def_319))) (let ((.def_321 (not .def_320))) (let ((.def_322 (+ .def_20 .def_10))) (let ((.def_323 (< .def_322 (- 1)))) (let ((.def_324 (and .def_323 .def_24))) (let ((.def_325 (= .def_324 .def_321))) (let ((.def_326 (< .def_0 1))) (let ((.def_327 (not .def_326))) (let ((.def_328 (or A7 .def_327))) (let ((.def_329 (not .def_328))) (let ((.def_330 (+ .def_10 .def_75))) (let ((.def_331 (< .def_330 (- 1)))) (let ((.def_332 (< .def_60 (- 1)))) (let ((.def_333 (or .def_332 .def_331))) (let ((.def_334 (not .def_333))) (let ((.def_335 (and .def_334 .def_329))) (let ((.def_336 (or .def_335 .def_325))) (let ((.def_337 (or .def_336 .def_318))) (let ((.def_338 (or .def_337 .def_299))) (let ((.def_339 (= .def_338 .def_270))) (let ((.def_340 (not .def_339))) (let ((.def_341 (and .def_340 .def_190))) (let ((.def_342 (not .def_341))) (let ((.def_343 (<= x9 1))) (let ((.def_344 (<= 0 x9))) (let ((.def_345 (<= x8 1))) (let ((.def_346 (<= 0 x8))) (let ((.def_347 (<= x7 1))) (let ((.def_348 (<= 0 x7))) (let ((.def_349 (<= x6 1))) (let ((.def_350 (<= 0 x6))) (let ((.def_351 (<= x5 1))) (let ((.def_352 (<= 0 x5))) (let ((.def_353 (<= x4 1))) (let ((.def_354 (<= 0 x4))) (let ((.def_355 (<= x3 1))) (let ((.def_356 (<= 0 x3))) (let ((.def_357 (<= x2 1))) (let ((.def_358 (<= 0 x2))) (let ((.def_359 (<= x1 1))) (let ((.def_360 (<= 0 x1))) (let ((.def_361 (<= x0 1))) (let ((.def_362 (<= 0 x0))) (let ((.def_363 (and .def_362 .def_361 .def_360 .def_359 .def_358 .def_357 .def_356 .def_355 .def_354 .def_353 .def_352 .def_351 .def_350 .def_349 .def_348 .def_347 .def_346 .def_345 .def_344 .def_343 .def_342))) .def_363)))))))))))))))))))))))))))))))))))))))))))))))))))))))))))))))))))))))))))))))))))))))))))))))))))))))))))))))))))))))))))))))))))))))))))))))))))))))))))))))))))))))))))))))))))))))))))))))))))))))))))))))))))))))))))))))))))))))))))))))))))))))))))))))))))))))))))))))))))))))))))))))))))))))))))))))))))))))))))))))))))))))))))))))))))))))))))))))))))))))))))))
(check-sat)
